144
1000000
176418
257417
409531
694951
362839
171944
608243
586540
423550
170909
325398
187815
227117
59998
100787
141655
59504
398707
124481
173126
609029
505099
504187
259940
13471
129646
53600
341214
344869
219938
254691
379465
576450
195221
620021
678360
418262
345788
582603
478564
155665
363352
297362
34669
497878
104315
241672
289057
300092
200482
157558
447812
411824
331708
41838
489103
436095
317652
169683
459977
234199
97949
553249
540023
324441
272573
411709
599129
337737
197539
422540
172431
57730
136543
9022
332146
377652
510308
202197
284127
470295
446751
340249
242073
413460
624356
11249
699908
28869
296029
489137
149666
193195
638268
116121
30
528675
340266
493267
326215
577444
51156
276560
45303
47819
585549
266811
123952
414451
529705
176396
255927
424777
239101
391961
248042
80044
575223
703971
579690
116183
16511
426816
65573
480879
157649
624403
417397
506703
105939
8813
144666
308931
110788
305049
687809
171974
118631
71097
712908
195403
327047
280901
203583
